
Gurobi 9.1.2 (win64) logging started Tue Dec  7 13:36:44 2021

Gurobi Optimizer version 9.1.2 build v9.1.2rc0 (win64)
Thread count: 8 physical cores, 8 logical processors, using up to 8 threads
Optimize a model with 1 rows, 34 columns and 33 nonzeros
Model fingerprint: 0x7e245e84
Variable types: 1 continuous, 33 integer (33 binary)
Coefficient statistics:
  Matrix range     [2e+00, 1e+01]
  Objective range  [1e+00, 1e+00]
  Bounds range     [3e+01, 3e+01]
  RHS range        [1e+01, 1e+01]
Presolve time: 0.00s
Presolved: 1 rows, 34 columns, 33 nonzeros
Variable types: 1 continuous, 33 integer (33 binary)

Root simplex log...

Iteration    Objective       Primal Inf.    Dual Inf.      Time
       0   -3.1762159e+01   1.760910e-01   0.000000e+00     14s
       3   -3.1762159e+01   0.000000e+00   0.000000e+00     14s

Root relaxation: objective -3.176216e+01, 3 iterations, 0.00 seconds

    Nodes    |    Current Node    |     Objective Bounds      |     Work
 Expl Unexpl |  Obj  Depth IntInf | Incumbent    BestBd   Gap | It/Node Time

     0     0  -31.76216    0    4          -  -31.76216      -     -   14s
H    0     0                     -31.7621588  -31.76216  0.00%     -   14s

Cutting planes:
  Lazy constraints: 3

Explored 1 nodes (10 simplex iterations) in 14.48 seconds
Thread count was 8 (of 8 available processors)

Solution count 1: -31.7622 
No other solutions better than -31.7622

Optimal solution found (tolerance 1.00e-04)
Best objective -3.176215880570e+01, best bound -3.176215880570e+01, gap 0.0000%

User-callback calls 75, time in user-callback 18.15 sec
